p cnf 36 394
-1 -10 0
-1 -11 0
-1 -12 0
-1 -13 0
-2 -10 0
-2 -11 0
-2 -12 0
-2 -13 0
-3 -10 0
-3 -11 0
-3 -12 0
-3 -13 0
-4 -10 0
-4 -11 0
-4 -12 0
-4 -13 0
-1 -28 0
-1 -29 0
-1 -30 0
-1 -31 0
-2 -28 0
-2 -29 0
-2 -30 0
-2 -31 0
-3 -28 0
-3 -29 0
-3 -30 0
-3 -31 0
-4 -28 0
-4 -29 0
-4 -30 0
-4 -31 0
-1 -37 0
-1 -38 0
-1 -39 0
-1 -40 0
-2 -37 0
-2 -38 0
-2 -39 0
-2 -40 0
-3 -37 0
-3 -38 0
-3 -39 0
-3 -40 0
-4 -37 0
-4 -38 0
-4 -39 0
-4 -40 0
-1 -55 0
-1 -56 0
-1 -57 0
-1 -58 0
-2 -55 0
-2 -56 0
-2 -57 0
-2 -58 0
-3 -55 0
-3 -56 0
-3 -57 0
-3 -58 0
-4 -55 0
-4 -56 0
-4 -57 0
-4 -58 0
-10 -28 0
-10 -29 0
-10 -30 0
-10 -31 0
-11 -28 0
-11 -29 0
-11 -30 0
-11 -31 0
-12 -28 0
-12 -29 0
-12 -30 0
-12 -31 0
-13 -28 0
-13 -29 0
-13 -30 0
-13 -31 0
-10 -46 0
-10 -47 0
-10 -48 0
-10 -49 0
-11 -46 0
-11 -47 0
-11 -48 0
-11 -49 0
-12 -46 0
-12 -47 0
-12 -48 0
-12 -49 0
-13 -46 0
-13 -47 0
-13 -48 0
-13 -49 0
-10 -55 0
-10 -56 0
-10 -57 0
-10 -58 0
-11 -55 0
-11 -56 0
-11 -57 0
-11 -58 0
-12 -55 0
-12 -56 0
-12 -57 0
-12 -58 0
-13 -55 0
-13 -56 0
-13 -57 0
-13 -58 0
-19 -28 0
-19 -29 0
-19 -30 0
-19 -31 0
-20 -28 0
-20 -29 0
-20 -30 0
-20 -31 0
-21 -28 0
-21 -29 0
-21 -30 0
-21 -31 0
-22 -28 0
-22 -29 0
-22 -30 0
-22 -31 0
-19 -73 0
-19 -74 0
-19 -75 0
-19 -76 0
-20 -73 0
-20 -74 0
-20 -75 0
-20 -76 0
-21 -73 0
-21 -74 0
-21 -75 0
-21 -76 0
-22 -73 0
-22 -74 0
-22 -75 0
-22 -76 0
-37 -46 0
-37 -47 0
-37 -48 0
-37 -49 0
-38 -46 0
-38 -47 0
-38 -48 0
-38 -49 0
-39 -46 0
-39 -47 0
-39 -48 0
-39 -49 0
-40 -46 0
-40 -47 0
-40 -48 0
-40 -49 0
-37 -73 0
-37 -74 0
-37 -75 0
-37 -76 0
-38 -73 0
-38 -74 0
-38 -75 0
-38 -76 0
-39 -73 0
-39 -74 0
-39 -75 0
-39 -76 0
-40 -73 0
-40 -74 0
-40 -75 0
-40 -76 0
-55 -73 0
-55 -74 0
-55 -75 0
-55 -76 0
-56 -73 0
-56 -74 0
-56 -75 0
-56 -76 0
-57 -73 0
-57 -74 0
-57 -75 0
-57 -76 0
-58 -73 0
-58 -74 0
-58 -75 0
-58 -76 0
-1 -10 0
-1 -19 0
-1 -28 0
-1 -37 0
-1 -46 0
-1 -55 0
-1 -64 0
-1 -73 0
-10 -19 0
-10 -28 0
-10 -37 0
-10 -46 0
-10 -55 0
-10 -64 0
-10 -73 0
-19 -28 0
-19 -37 0
-19 -46 0
-19 -55 0
-19 -64 0
-19 -73 0
-28 -37 0
-28 -46 0
-28 -55 0
-28 -64 0
-28 -73 0
-37 -46 0
-37 -55 0
-37 -64 0
-37 -73 0
-46 -55 0
-46 -64 0
-46 -73 0
-55 -64 0
-55 -73 0
-64 -73 0
1 10 19 28 37 46 55 64 73 0
-2 -11 0
-2 -20 0
-2 -29 0
-2 -38 0
-2 -47 0
-2 -56 0
-2 -65 0
-2 -74 0
-11 -20 0
-11 -29 0
-11 -38 0
-11 -47 0
-11 -56 0
-11 -65 0
-11 -74 0
-20 -29 0
-20 -38 0
-20 -47 0
-20 -56 0
-20 -65 0
-20 -74 0
-29 -38 0
-29 -47 0
-29 -56 0
-29 -65 0
-29 -74 0
-38 -47 0
-38 -56 0
-38 -65 0
-38 -74 0
-47 -56 0
-47 -65 0
-47 -74 0
-56 -65 0
-56 -74 0
-65 -74 0
2 11 20 29 38 47 56 65 74 0
-3 -12 0
-3 -21 0
-3 -30 0
-3 -39 0
-3 -48 0
-3 -57 0
-3 -66 0
-3 -75 0
-12 -21 0
-12 -30 0
-12 -39 0
-12 -48 0
-12 -57 0
-12 -66 0
-12 -75 0
-21 -30 0
-21 -39 0
-21 -48 0
-21 -57 0
-21 -66 0
-21 -75 0
-30 -39 0
-30 -48 0
-30 -57 0
-30 -66 0
-30 -75 0
-39 -48 0
-39 -57 0
-39 -66 0
-39 -75 0
-48 -57 0
-48 -66 0
-48 -75 0
-57 -66 0
-57 -75 0
-66 -75 0
3 12 21 30 39 48 57 66 75 0
-4 -13 0
-4 -22 0
-4 -31 0
-4 -40 0
-4 -49 0
-4 -58 0
-4 -67 0
-4 -76 0
-13 -22 0
-13 -31 0
-13 -40 0
-13 -49 0
-13 -58 0
-13 -67 0
-13 -76 0
-22 -31 0
-22 -40 0
-22 -49 0
-22 -58 0
-22 -67 0
-22 -76 0
-31 -40 0
-31 -49 0
-31 -58 0
-31 -67 0
-31 -76 0
-40 -49 0
-40 -58 0
-40 -67 0
-40 -76 0
-49 -58 0
-49 -67 0
-49 -76 0
-58 -67 0
-58 -76 0
-67 -76 0
4 13 22 31 40 49 58 67 76 0
-1 -2 0
-1 -3 0
-1 -4 0
-2 -3 0
-2 -4 0
-3 -4 0
-10 -11 0
-10 -12 0
-10 -13 0
-11 -12 0
-11 -13 0
-12 -13 0
-19 -20 0
-19 -21 0
-19 -22 0
-20 -21 0
-20 -22 0
-21 -22 0
-28 -29 0
-28 -30 0
-28 -31 0
-29 -30 0
-29 -31 0
-30 -31 0
-37 -38 0
-37 -39 0
-37 -40 0
-38 -39 0
-38 -40 0
-39 -40 0
-46 -47 0
-46 -48 0
-46 -49 0
-47 -48 0
-47 -49 0
-48 -49 0
-55 -56 0
-55 -57 0
-55 -58 0
-56 -57 0
-56 -58 0
-57 -58 0
-64 -65 0
-64 -66 0
-64 -67 0
-65 -66 0
-65 -67 0
-66 -67 0
-73 -74 0
-73 -75 0
-73 -76 0
-74 -75 0
-74 -76 0
-75 -76 0
